circuit_heights=[3, 4, 5, 6, 7, 8, 9, 10, 11, 12, 13, 14, 22, 31, 3, 7, 8, 13, 31];
circuit_widths=[3, 3, 3, 3, 3, 3, 3, 3, 3, 3, 3, 3, 3, 3, 4, 4, 4, 4, 12];
max_height=217;
min_height=31;
n_circuits=19;
plate_width=31;
